<?xml version = "1.0" standalone="yes"?>
<!-- This file has been generated by DOcplex version 2.23.222  -->
<CPLEXSolution version="1.0">
 <header
   problemName="CVRP"
   objectiveValue="11708.3"
  />
 <variables>
  <variable name="x_0_2" index="1" value="1.00000"/>
  <variable name="x_0_3" index="2" value="1.00000"/>
  <variable name="x_0_4" index="3" value="1.00000"/>
  <variable name="x_0_5" index="4" value="1.00000"/>
  <variable name="x_0_6" index="5" value="1.00000"/>
  <variable name="x_0_8" index="7" value="1.00000"/>
  <variable name="x_0_9" index="8" value="1.00000"/>
  <variable name="x_0_10" index="9" value="1.00000"/>
  <variable name="x_0_11" index="10" value="1.00000"/>
  <variable name="x_0_14" index="13" value="1.00000"/>
  <variable name="x_0_15" index="14" value="1.00000"/>
  <variable name="x_0_17" index="16" value="1.00000"/>
  <variable name="x_0_18" index="17" value="1.00000"/>
  <variable name="x_1_0" index="18" value="1.00000"/>
  <variable name="x_2_0" index="36" value="1.00000"/>
  <variable name="x_3_1" index="55" value="1.00000"/>
  <variable name="x_4_0" index="72" value="1.00000"/>
  <variable name="x_5_0" index="90" value="1.00000"/>
  <variable name="x_6_0" index="108" value="1.00000"/>
  <variable name="x_7_0" index="126" value="1.00000"/>
  <variable name="x_8_16" index="159" value="1.00000"/>
  <variable name="x_9_0" index="162" value="1.00000"/>
  <variable name="x_10_12" index="191" value="1.00000"/>
  <variable name="x_11_0" index="198" value="1.00000"/>
  <variable name="x_12_0" index="216" value="1.00000"/>
  <variable name="x_13_0" index="234" value="1.00000"/>
  <variable name="x_14_0" index="252" value="1.00000"/>
  <variable name="x_15_0" index="270" value="1.00000"/>
  <variable name="x_16_0" index="288" value="1.00000"/>
  <variable name="x_17_13" index="319" value="1.00000"/>
  <variable name="x_18_7" index="331" value="1.00000"/>
  <variable name="u_1" index="342" value="69.00000"/>
  <variable name="u_2" index="343" value="74.00000"/>
  <variable name="u_3" index="344" value="42.00000"/>
  <variable name="u_4" index="345" value="73.00000"/>
  <variable name="u_5" index="346" value="74.00000"/>
  <variable name="u_6" index="347" value="74.00000"/>
  <variable name="u_7" index="348" value="63.00000"/>
  <variable name="u_8" index="349" value="41.00000"/>
  <variable name="u_9" index="350" value="47.00000"/>
  <variable name="u_10" index="351" value="67.00000"/>
  <variable name="u_11" index="352" value="60.00000"/>
  <variable name="u_12" index="353" value="74.00000"/>
  <variable name="u_13" index="354" value="66.00000"/>
  <variable name="u_14" index="355" value="67.00000"/>
  <variable name="u_15" index="356" value="29.00000"/>
  <variable name="u_16" index="357" value="64.00000"/>
  <variable name="u_17" index="358" value="18.00000"/>
  <variable name="u_18" index="359" value="28.00000"/>
 </variables>
</CPLEXSolution>
